30 96 228
1 3 3
1 9 1
1 15 2
1 18 1
1 21 3
1 22 3
1 27 3
1 28 5
2 3 4
2 8 4
2 15 2
2 18 2
2 19 2
2 21 1
2 22 3
2 23 1
2 25 1
2 26 4
3 4 5
3 7 2
3 17 3
3 21 2
3 27 4
3 28 2
4 5 1
4 11 3
4 23 4
4 27 3
5 8 4
5 13 4
5 16 2
5 20 5
5 22 4
5 26 5
5 30 4
6 7 5
6 12 2
6 15 3
6 19 5
6 22 5
6 27 3
7 11 3
7 13 5
7 16 1
7 17 3
7 22 1
8 24 1
9 10 5
9 11 3
9 12 5
9 16 3
9 19 1
9 24 2
9 30 1
10 11 3
10 16 1
10 19 3
10 30 3
11 14 5
11 26 2
11 27 3
11 29 3
12 20 3
12 23 5
12 30 3
13 19 1
13 28 1
14 22 1
15 16 3
15 21 1
15 26 1
16 22 4
16 23 5
17 18 4
17 20 2
17 27 4
17 29 1
17 30 4
18 25 5
18 29 1
18 30 3
19 21 4
19 30 3
20 24 3
20 25 3
20 27 2
21 27 4
21 29 4
21 30 1
23 26 4
24 25 4
24 27 2
24 29 2
25 26 5
25 27 4
26 30 3
